(declare-fun Constructed_Argument_t () String)
(declare-fun Constructed_Argument_2_t () String)
(declare-fun CreateAsClass () Bool)
(declare-fun Constructed_Argument () String)
(declare-fun Constructed_Argument_2_elements_loose_0_t () String)
(assert (= Constructed_Argument_t (str.++ (seq.unit #x73) (seq.unit #x74) (seq.unit #x72) (seq.unit #x69) (seq.unit #x6e) (seq.unit #x67))))
(assert (= Constructed_Argument_2_t (str.++ (seq.unit #x6f) (seq.unit #x62) (seq.unit #x6a) (seq.unit #x65) (seq.unit #x63) (seq.unit #x74))))
(assert (not CreateAsClass))
(assert (<= (to_real (str.len Constructed_Argument)) 256.0))
(assert (not (= Constructed_Argument_2_elements_loose_0_t (str.++ (seq.unit #x73) (seq.unit #x74) (seq.unit #x72) (seq.unit #x69) (seq.unit #x6e) (seq.unit #x67)))))
(assert (not (= Constructed_Argument_2_elements_loose_0_t (str.++ (seq.unit #x6e) (seq.unit #x75) (seq.unit #x6d) (seq.unit #x62) (seq.unit #x65) (seq.unit #x72)))))
(assert (not (= Constructed_Argument_2_elements_loose_0_t (str.++ (seq.unit #x62) (seq.unit #x6f) (seq.unit #x6f) (seq.unit #x6c) (seq.unit #x65) (seq.unit #x61) (seq.unit #x6e)))))
(assert (= Constructed_Argument_2_elements_loose_0_t (str.++ (seq.unit #x6f) (seq.unit #x62) (seq.unit #x6a) (seq.unit #x65) (seq.unit #x63) (seq.unit #x74))))
(check-sat)
